c array.sh: path:     /data/qbf/qbf20/PCNF/filesys_smbmrx_cvsndrcv.c.qdimacs
c array.sh: name:     filesys_smbmrx_cvsndrcv.c
c array.sh: task:     51
c array.sh: host:     c3n26
c array.sh: uname:    Linux c3n26 4.15.0-135-generic #139-Ubuntu SMP Mon Jan 18 17:38:24 UTC 2021 x86_64 x86_64 x86_64 GNU/Linux
c array.sh: start:    Tue Feb 16 22:43:51 CET 2021
c array.sh: noturbo:  1
c array.sh: governor: 32 performance
c array.sh: tmp:      1%
c array.sh: unzipped: /tmp/local-unzipped-18834727-51-filesys_smbmrx_cvsndrcv.c.cnf
using tmp directory:
  /tmp
running QBF solver...

/home/seidl/cert_tests/bin/ferp-models/ijtihad/ijtihad --dependencies=0 --wit_per_call=-1 --cex_per_call=-1 --log_phi=/tmp/ferpcert2752expanded.cnf /tmp/local-unzipped-18834727-51-filesys_smbmrx_cvsndrcv.c.cnf
c Options after parsing: 
c cex_per_call = 18446744073709551615
c wit_per_call = 18446744073709551615
c warmup = 1
c warmup_randoms = 0
c trimming_phi = 0
c trimming_ksi = 2
c trimming_interval = 200
c memory_limit = 3000000
c MySolverv970-glucose
-1 -2 -3 -4 -5 -6 -7 -8 -9 -10 -11 -12 -13 -14 -15 -16 -17 -18 -19 -20 -21 -22 -23 -24 -25 -26 -27 -28 -29 -30 -31 -32 -33 -34 -35 -36 -37 -38 -39 -40 -41 -42 -43 -44 -45 -46 -47 -48 -49 -50 -51 -52 -53 -54 -55 -56 -57 -58 -59 -60 -61 -62 -63 -64 -65 -66 -67 -68 -69 -70 -71 -72 -73 -74 -75 -76 -77 -78 -79 -80 -81 -82 -83 -84 -85 -86 -87 -88 -89 -90 -91 -92 -93 -94 -95 -96 -97 -98 -99 -100 -101 -102 -103 -104 -105 -106 -107 -108 -109 -110 -111 -112 -113 -114 -115 -116 -117 -118 -119 -120 -121 -122 -123 -124 -125 -126 -127 -128 -129 -130 -131 -132 -133 -134 -135 -136 -137 -138 -139 -140 -141 -142 -143 -144 -145 -146 -147 -148 -149 -150 -151 -152 -153 -154 -155 -156 -157 -158 -159 -160 -161 -162 -163 -164 -165 -166 -167 -168 -169 -170 -171 -172 -173 -174 -175 -176 -177 -178 -179 -180 -181 -182 -183 -184 -185 -186 -187 -188 -189 -190 -191 -192 
1 2 3 4 5 6 7 8 9 10 11 12 13 14 15 16 17 18 19 20 21 22 23 24 25 26 27 28 29 30 31 32 33 34 35 36 37 38 39 40 41 42 43 44 45 46 47 48 49 50 51 52 53 54 55 56 57 58 59 60 61 62 63 64 65 66 67 68 69 70 71 72 73 74 75 76 77 78 79 80 81 82 83 84 85 86 87 88 89 90 91 92 93 94 95 96 97 98 99 100 101 102 103 104 105 106 107 108 109 110 111 112 113 114 115 116 117 118 119 120 121 122 123 124 125 126 127 128 129 130 131 132 133 134 135 136 137 138 139 140 141 142 143 144 145 146 147 148 149 150 151 152 153 154 155 156 157 158 159 160 161 162 163 164 165 166 167 168 169 170 171 172 173 174 175 176 177 178 179 180 181 182 183 184 185 186 187 188 189 190 191 192 
c Number of calls is: 0
c Layers in PHI: 0
c Layers in KSI: 0
c Running Ijtihad loop
c sat_solver_phi calld 0 times, running for 0.002575 seconds.
c number of layers in PHI is 2
c sat_solver_ksi was running for 0 seconds.
c number of layers in KSI is 0
c mysolver was running for 0.211369 seconds.
s cnf 0
solving done with exit code 20

QBF solver OK

running SAT Solver...

/tmp/ferpcert2752expanded.cnf
s UNSATISFIABLE

PROOF GENERATION OK

checking unsat proof

resolved 1 root and 1 empty clause
trace-size2: 2470279

TRACE CHECK OK

running toferp...

ferp-size: 2732689
TOFERP OK

checking FERP PROOF...

c Warning: Variable count mismatch 31333 31334
FERP CHECK OK

extracting AIG ...

aig-size: 284124
aig-header: aag 37582 31141 0 192 6440
FERP CERT OK

merging  AIG into QBF ...

CERTCHECK OK

merged-cnf-header: p cnf 341813 838010
merged-cnf-size: 15479756
running SAT solver...

c ---- [ banner ] ------------------------------------------------------------
c
c KISSAT SAT Solver
c Copyright (c) 2019-2020 Armin Biere JKU Linz
c 
c Version 1.0.3 59813addcacc4d6fb880ebdd63685600475aa940
c gcc (Ubuntu 7.5.0-3ubuntu1~18.04) 7.5.0 -W -Wall -O3 -DNEMBEDDED -DNDEBUG -DNMETRICS -DNSTATISTICS
c Sun Feb 14 23:58:54 CET 2021 Linux cluster3 4.15.0-135-generic x86_64
c
c ---- [ parsing ] -----------------------------------------------------------
c
c opened and reading DIMACS file:
c 
c   /tmp/ferpcert_merged_cnf2752.cnf
c 
c parsed 'p cnf 341813 838010' header
c closing input after reading 15479756 bytes (15 MB)
c finished parsing after 0.29 seconds
c
c ---- [ solving ] -----------------------------------------------------------
c
c  seconds reductions redundant irredundant
c         MB   restarts    trail      variables
c          level  conflicts   glue        remaining
c
c *  0.29 48 0  0  0   0   0 0% 0 838008 9918 3%
c {  0.29 48 0  0  0   0   0 0% 0 838008 9918 3%
c i  0.29 48 32  0  0   1   0 74% 0 838008 9914 3%
c i  0.29 48 32  0  1   2   0 75% 0 838008 9910 3%
c i  0.29 48 32  0  2   3   0 76% 0 838008 9906 3%
c i  0.29 48 32  0  3   4   0 76% 0 838008 9902 3%
c i  0.29 48 32  0  4   5   0 75% 0 838008 9898 3%
c i  0.29 48 32  0  5   6   0 74% 0 838008 9894 3%
c i  0.29 48 32  0  6   7   0 74% 0 838008 9890 3%
c i  0.29 48 32  0  7   8   0 75% 0 838008 9886 3%
c i  0.29 48 32  0  8   9   0 75% 0 838008 9882 3%
c i  0.29 48 32  0  9  10   0 75% 0 838008 9878 3%
c i  0.29 48 32  0 10  11   0 75% 0 838008 9874 3%
c i  0.29 48 32  0 11  12   0 75% 0 838008 9870 3%
c i  0.30 48 32  0 12  13   0 75% 0 838008 9866 3%
c i  0.30 48 32  0 13  14   0 75% 0 838008 9862 3%
c i  0.30 48 32  0 14  15   0 75% 0 838008 9858 3%
c i  0.30 48 32  0 15  16   0 74% 0 838008 9854 3%
c i  0.30 48 32  0 16  17   0 74% 0 838008 9850 3%
c i  0.30 48 32  0 17  18   0 74% 0 838008 9846 3%
c
c  seconds  reductions redundant irredundant
c         MB    restarts     trail      variables
c          level   conflicts    glue        remaining
c
c i  0.30 48 32  0 18  19   0 74% 0 838008 9842 3%
c i  0.30 48 32  0 19  20   0 74% 0 838008 9838 3%
c i  0.30 48 32  0 20  21   0 74% 0 838008 9834 3%
c i  0.30 48 32  0 21  22   0 74% 0 838008 9830 3%
c i  0.30 48 32  0 22  23   0 74% 0 838008 9826 3%
c i  0.30 48 32  0 23  24   0 74% 0 838008 9822 3%
c i  0.30 48 32  0 24  25   0 74% 0 838008 9818 3%
c i  0.30 48 32  0 25  26   0 74% 0 838008 9814 3%
c i  0.30 48 32  0 26  27   0 74% 0 838008 9810 3%
c i  0.30 48 32  0 27  28   0 74% 0 838008 9806 3%
c i  0.30 48 32  0 28  29   0 74% 0 838008 9802 3%
c i  0.30 48 32  0 29  30   0 75% 0 838008 9798 3%
c i  0.30 48 32  0 30  31   0 75% 0 838008 9794 3%
c i  0.30 48 32  0 31  33   1 75% 0 838008 9793 3%
c i  0.30 48 31  0 31  34   1 73% 0 838008 9786 3%
c i  0.30 48 30  0 31  35   1 71% 0 838008 9785 3%
c }  0.30 48 28  0 31  37   1 66% 0 838008 9769 3%
c 0  0.30 48 28  0 31  37   1 66% 0 838008 9769 3%
c
c ---- [ result ] ------------------------------------------------------------
c
s UNSATISFIABLE
c
c ---- [ profiling ] ---------------------------------------------------------
c
c           0.29   93.93 %  parse
c           0.02    6.01 %  search
c           0.02    5.98 %  focused
c           0.00    0.00 %  simplify
c =============================================
c           0.30  100.00 %  total
c
c ---- [ statistics ] --------------------------------------------------------
c
c conflicts:                               37              121.46 per second
c decisions:                             1030               27.84 per conflict
c propagations:                        537416          1764154    per second
c restarts:                                31                1.19 interval
c
c ---- [ resources ] ---------------------------------------------------------
c
c maximum-resident-set-size:         50503680 bytes         48 MB
c process-time:                             0s               0.30 seconds
c
c ---- [ shutting down ] -----------------------------------------------------
c
c exit 20

SAT solver OK

VALID
c array.sh: end:      Tue Feb 16 22:45:17 CET 2021
